*SENSE:Maximize
NAME          MODEL
ROWS
 N  OBJ
 E  C0000000
 E  C0000001
COLUMNS
    X0000001  C0000000  -1.000000000000e+00
    X0000001  OBJ        6.500000000000e+01
    X0000001  C0000000  -1.000000000000e+00
    X0000001  OBJ       -7.500000000000e+01
    X0000003  C0000000  -1.000000000000e+00
    X0000003  OBJ        7.800000000000e+01
    X0000003  C0000000  -1.000000000000e+00
    X0000005  C0000000  -1.000000000000e+00
    X0000005  OBJ        1.000000000000e+01
    X0000005  C0000000  -1.000000000000e+00
    X0000005  OBJ       -4.200000000000e+01
    X0000006  C0000000   1.000000000000e+00
    X0000006  OBJ        4.600000000000e+01
    X0000008  C0000001  -1.000000000000e+00
    X0000008  OBJ        6.300000000000e+01
    X0000008  C0000001  -1.000000000000e+00
    X0000008  OBJ       -1.500000000000e+01
    X0000009  C0000000   1.000000000000e+00
    X0000009  OBJ        3.200000000000e+01
    X0000011  C0000001  -1.000000000000e+00
    X0000011  OBJ        5.000000000000e+01
    X0000011  C0000001  -1.000000000000e+00
    X0000011  OBJ       -1.000000000000e+01
    X0000012  C0000000   1.000000000000e+00
    X0000012  C0000001  -1.000000000000e+00
RHS
    RHS       C0000000   0.000000000000e+00
    RHS       C0000001   0.000000000000e+00
BOUNDS
 UP BND       X0000001   3.500000000000e+01
 UP BND       X0000001   1.500000000000e+01
 UP BND       X0000003   2.300000000000e+01
 UP BND       X0000003   3.200000000000e+01
 UP BND       X0000005   1.200000000000e+01
 UP BND       X0000005   2.500000000000e+01
 UP BND       X0000006   3.800000000000e+01
 UP BND       X0000008   4.300000000000e+01
 UP BND       X0000008   1.000000000000e+02
 UP BND       X0000009   1.600000000000e+01
 UP BND       X0000011   5.700000000000e+01
 UP BND       X0000011   7.000000000000e+01
 LO BND       X0000012  -3.000000000000e+01
 UP BND       X0000012   3.000000000000e+01
ENDATA
